(declare-const X_0 Real)
(declare-const X_1 Real)
(declare-const Y_0 Real)
(declare-const Y_1 Real)
(assert (<= (* 1.0 X_0) 9.5))
(assert (<= (* -1.0 X_0) -8.5))
(assert (<= (* 1.0 X_1) 7.5))
(assert (<= (* -1.0 X_1) -6.5))
(assert (<= (+ (* 1.0 Y_0) (* -1.0 Y_1)) 0.0))
